# Solution for model qis_1000_800_868
# Objective value = 3.1119911468471133e+02
x[0] -2.6227139624989869e-08
x[1] 1
x[2] 0
x[3] 1
x[4] 0
x[5] 0
x[6] 0
x[7] 1
x[8] 0
x[9] 0
x[10] 0
x[11] 0
x[12] 1
x[13] 0
x[14] 0
x[15] 7.9191768177742364e-08
x[16] 1
x[17] 0
x[18] 0
x[19] 1
x[20] 0
x[21] 0
x[22] 1
x[23] 1
x[24] 0
x[25] 5.1261028416222630e-07
x[26] 0
x[27] 1
x[28] 5.1253719767794517e-07
x[29] 0
x[30] 0
x[31] 1
x[32] 0
x[33] 0
x[34] 3.3687756734832229e-08
x[35] 0
x[36] 1
x[37] 1
x[38] 1
x[39] 1
x[40] 0
x[41] 0
x[42] 1
x[43] 1
x[44] 1
x[45] 1
x[46] 1
x[47] 1
x[48] 0
x[49] 1.0000000376753528e+00
x[50] 0
x[51] 0
x[52] 1
x[53] 1
x[54] 0
x[55] 1
x[56] 0
x[57] 0
x[58] 0
x[59] 1
x[60] 1
x[61] 0
x[62] 0
x[63] 0
x[64] 0
x[65] 1
x[66] 1
x[67] 0
x[68] 9.9999995672711117e-01
x[69] 0
x[70] 1
x[71] 1
x[72] 9.9999987931777112e-01
x[73] 1.0000000294976013e+00
x[74] 9.9999907661466481e-01
x[75] 1
x[76] 0
x[77] 1
x[78] 1
x[79] 4.8263679684627783e-07
x[80] 0
x[81] 1.0000000336569066e+00
x[82] 1
x[83] 0
x[84] 0
x[85] 1
x[86] 1
x[87] 1
x[88] 1
x[89] 1
x[90] 0
x[91] 0
x[92] 0
x[93] 0
x[94] 0
x[95] 9.9999995172711120e-01
x[96] 0
x[97] 9.9999995506044514e-01
x[98] 0
x[99] 1
x[100] 0
x[101] 0
x[102] 1
x[103] 0
x[104] 0
x[105] 1
x[106] 1
x[107] 1
x[108] 9.9999989540873779e-01
x[109] 1
x[110] 1
x[111] 0
x[112] 0
x[113] 0
x[114] 0
x[115] 0
x[116] 0.999999763635544
x[117] 1
x[118] 1
x[119] 1
x[120] 1
x[121] 1
x[122] 0
x[123] 1
x[124] 0
x[125] 1
x[126] -1.3558365743036236e-08
x[127] 0
x[128] 1
x[129] 1
x[130] 0
x[131] 1
x[132] 1
x[133] 0
x[134] 1
x[135] 0
x[136] 1
x[137] 1
x[138] 9.5878243369511266e-07
x[139] 1
x[140] 0
x[141] 1
x[142] 1
x[143] 0
x[144] 8.0369028616031808e-08
x[145] 1
x[146] 1
x[147] 0
x[148] 1
x[149] 1
x[150] 0
x[151] 8.0392742164347236e-08
x[152] 0
x[153] 1
x[154] 1
x[155] 9.9999952069653653e-01
x[156] 0
x[157] 1
x[158] 1.0000000168021195e+00
x[159] 1
x[160] 1.00000002950698
x[161] 0
x[162] 0
x[163] -3.3783398289807062e-08
x[164] 1
x[165] 1
x[166] 1
x[167] 0
x[168] 0
x[169] 9.9999952022518424e-01
x[170] 1
x[171] 0.999999985030067
x[172] 1
x[173] 0
x[174] 0
x[175] 0
x[176] 1
x[177] 1
x[178] 1
x[179] 0
x[180] 0
x[181] 0
x[182] 0
x[183] 1
x[184] 0
x[185] 0
x[186] 1.2049686841623439e-07
x[187] 1
x[188] 1
x[189] 1
x[190] 1
x[191] 1
x[192] 1
x[193] 1
x[194] 1
x[195] 6.4281903439291415e-08
x[196] 1
x[197] 0
x[198] 1
x[199] 9.9999995172711120e-01
x[200] 0
x[201] 0
x[202] 1
x[203] 9.9999995172711165e-01
x[204] 0
x[205] 1.2062928571140703e-07
x[206] 1
x[207] 1
x[208] 0
x[209] 0
x[210] 0
x[211] 0
x[212] 0
x[213] 0
x[214] 0
x[215] 0
x[216] 1
x[217] 4.8147838832652369e-08
x[218] 1
x[219] 1
x[220] 1
x[221] 0
x[222] 0
x[223] 1
x[224] 9.9999951727109138e-01
x[225] 1
x[226] 1
x[227] 0
x[228] 0
x[229] 0
x[230] 1
x[231] 1
x[232] 1
x[233] -2.9560472950988821e-08
x[234] 0
x[235] 0
x[236] 1
x[237] 9.9999993896947825e-01
x[238] 9.9999948733122612e-01
x[239] 0
x[240] 1
x[241] 0
x[242] 1
x[243] 1
x[244] 4.7569690008693790e-08
x[245] 9.9999976196887741e-01
x[246] 1
x[247] 0
x[248] 0
x[249] 0
x[250] 0
x[251] 0
x[252] 1
x[253] 1
x[254] 0
x[255] 4.8208768678304127e-08
x[256] 1
x[257] 0
x[258] 0
x[259] 0
x[260] 1
x[261] 1
x[262] 5.1254427270192175e-07
x[263] 0
x[264] 1
x[265] 1
x[266] 0
x[267] 0
x[268] 1
x[269] 1
x[270] 0
x[271] 1
x[272] 0
x[273] 0
x[274] 0
x[275] 1
x[276] 1
x[277] 0
x[278] 9.9999995506044470e-01
x[279] 1
x[280] 0
x[281] 0
x[282] 0
x[283] 1
x[284] 9.9999995506044459e-01
x[285] 9.9999995018448784e-01
x[286] 1
x[287] 9.9999952060442188e-01
x[288] 9.2666266324125652e-07
x[289] 0
x[290] 1
x[291] 0
x[292] 1
x[293] 0
x[294] 1
x[295] 1
x[296] 1
x[297] 0
x[298] 1
x[299] 0
x[300] 1
x[301] 1
x[302] 1
x[303] 0
x[304] 0
x[305] 1
x[306] 0
x[307] 1.0000007450733679e+00
x[308] 1
x[309] 1
x[310] 9.9999975863554480e-01
x[311] 1
x[312] 1.8479393673832983e-07
x[313] 1
x[314] 0
x[315] 1
x[316] 1
x[317] 1
x[318] 0
x[319] 1
x[320] 1
x[321] 0
x[322] 1
x[323] 0
x[324] 1
x[325] 0
x[326] 0
x[327] 0
x[328] 4.8211738619607332e-08
x[329] 0
x[330] 0
x[331] 0
x[332] 1.2056260100517169e-07
x[333] 9.9999952060442188e-01
x[334] 0
x[335] 1
x[336] 0
x[337] 1
x[338] 1
x[339] 0
x[340] 0
x[341] 0
x[342] 0
x[343] 1
x[344] 9.9999996621660248e-01
x[345] 0
x[346] 0
x[347] 1
x[348] 0
x[349] -2.6227139809951756e-08
x[350] 0
x[351] 0
x[352] 0
x[353] 0
x[354] 1
x[355] 1
x[356] 1
x[357] 1
x[358] 0
x[359] 1
x[360] 0
x[361] 4.8267158877033762e-07
x[362] 0
x[363] 0
x[364] 0
x[365] 2.4128025560221509e-07
x[366] 0
x[367] 0
x[368] 1.00000048261486
x[369] 0
x[370] 0
x[371] 0
x[372] -1.6090966448167876e-08
x[373] 1
x[374] 1
x[375] 1
x[376] 0
x[377] 1
x[378] 0
x[379] 1.0000000297994098e+00
x[380] 1
x[381] 0
x[382] 0
x[383] 0
x[384] 1
x[385] 0
x[386] 0
x[387] 1
x[388] 1
x[389] 1.2057197847533755e-07
x[390] 0
x[391] 1.0000000210539279e+00
x[392] 0
x[393] 1
x[394] 0
x[395] 1
x[396] 1
x[397] 0
x[398] 0
x[399] 1
x[400] 1
x[401] 1
x[402] 0
x[403] 0
x[404] 0
x[405] 0
x[406] 1
x[407] 9.9999993896947814e-01
x[408] 0
x[409] 1
x[410] -5.0766877387767811e-07
x[411] 0
x[412] 0
x[413] 0
x[414] 1
x[415] 1.0000000298728391e+00
x[416] 0
x[417] 1
x[418] 0
x[419] 1
x[420] 1
x[421] 0
x[422] 1
x[423] 0
x[424] 1
x[425] 0
x[426] 1
x[427] 0
x[428] 0
x[429] 1
x[430] 1
x[431] 0
x[432] 1
x[433] 0
x[434] 1
x[435] 0
x[436] -2.9560473180367808e-08
x[437] 0
x[438] 0
x[439] 1
x[440] 1
x[441] 1
x[442] 1
x[443] 0
x[444] 0
x[445] 1
x[446] 0
x[447] 1
x[448] 1
x[449] 9.9999999999999978e-01
x[450] 1
x[451] 0
x[452] 1
x[453] 0
x[454] 0
x[455] 0
x[456] 0
x[457] 0
x[458] 0
x[459] 0
x[460] 0
x[461] 0
x[462] 1
x[463] 9.9999998724237193e-01
x[464] 0
x[465] 0
x[466] 0
x[467] 1
x[468] 1
x[469] 1
x[470] 0
x[471] 1
x[472] 1
x[473] 0
x[474] 9.9999995672711117e-01
x[475] 0
x[476] 1
x[477] 0
x[478] 0
x[479] 0
x[480] 1
x[481] 1
x[482] 9.9999952060442465e-01
x[483] 1
x[484] 0
x[485] 1
x[486] 1.0000000294345062e+00
x[487] 0
x[488] 1
x[489] 0
x[490] 0
x[491] 1
x[492] 0
x[493] 0
x[494] 1
x[495] 0
x[496] 1
x[497] 0
x[498] 1
x[499] 0
x[500] 4.8261213171091666e-07
x[501] 1
x[502] 4.8168159978957190e-08
x[503] 0
x[504] 1.0000000167530954e+00
x[505] 1
x[506] 0
x[507] 1
x[508] 1
x[509] 0
x[510] 1
x[511] 1
x[512] 0
x[513] 1
x[514] 1
x[515] 1
x[516] 1
x[517] 9.9999999999999989e-01
x[518] 1
x[519] 1
x[520] 0
x[521] 1
x[522] 1
x[523] 0
x[524] 0
x[525] 0
x[526] 0.999999879317771
x[527] 1
x[528] 0
x[529] 0
x[530] -2.9560472958323203e-08
x[531] 1
x[532] 4.7791521938221171e-07
x[533] 1.5947827308281194e-08
x[534] 4.1179989811341154e-07
x[535] 4.8264041748249719e-07
x[536] 1
x[537] 9.9999995506044459e-01
x[538] 1
x[539] 1
x[540] 0
x[541] 1
x[542] 0
x[543] 1
x[544] 1
x[545] 1
x[546] 1
x[547] 0
x[548] 1
x[549] 0
x[550] 0
x[551] 1
x[552] 1
x[553] 0
x[554] 1
x[555] 0
x[556] 0
x[557] 0
x[558] 0
x[559] -5.0766877387767811e-07
x[560] 1
x[561] 1
x[562] 0
x[563] 9.9999992294059126e-01
x[564] 0
x[565] 1
x[566] 0
x[567] 0
x[568] 4.9593007096286991e-08
x[569] 1
x[570] 0
x[571] 0
x[572] 1
x[573] 1
x[574] 0
x[575] 1
x[576] 1
x[577] 0
x[578] 0
x[579] 1
x[580] 0
x[581] 0
x[582] 1
x[583] 0
x[584] 9.9999997115140593e-01
x[585] -1.6891699150534123e-08
x[586] 0
x[587] 1
x[588] 6.4201405939391521e-08
x[589] 0
x[590] 1
x[591] 1
x[592] 4.8261967498220950e-07
x[593] 0
x[594] 4.8266275112273267e-07
x[595] 0
x[596] 0
x[597] 1
x[598] 0
x[599] 0
x[600] 0
x[601] 1
x[602] 1
x[603] 1
x[604] 0
x[605] 0
x[606] 0
x[607] 1
x[608] 1
x[609] 1
x[610] 1
x[611] 0
x[612] 0
x[613] 1
x[614] 4.81682039901449e-08
x[615] 9.9999949066455951e-01
x[616] 0
x[617] 1.0000000294898870e+00
x[618] -1.6090966337145574e-08
x[619] 0
x[620] 1
x[621] 0
x[622] 0
x[623] 0
x[624] 9.8108367764283111e-08
x[625] -2.6539505764097065e-08
x[626] 9.9999988265110451e-01
x[627] 0
x[628] 1
x[629] 0
x[630] 0
x[631] 0
x[632] 1
x[633] 0
x[634] 1
x[635] 1.0000000295067204e+00
x[636] 0
x[637] 0
x[638] 1
x[639] 1.3954669262132074e-08
x[640] 1
x[641] 0
x[642] 1
x[643] 3.2084463163554727e-08
x[644] 1
x[645] 1.0000000294854863e+00
x[646] 0
x[647] 0
x[648] 9.9999949233122609e-01
x[649] 9.9999999999999833e-01
x[650] 1
x[651] 0
x[652] 1
x[653] 0
x[654] 0
x[655] 0
x[656] 0
x[657] 0
x[658] 0
x[659] 1
x[660] 0
x[661] 0
x[662] 4.8261851535860577e-07
x[663] 0
x[664] 0
x[665] 0
x[666] 0
x[667] 1
x[668] 1.0000005125789437e+00
x[669] 0
x[670] 0
x[671] 1
x[672] 0
x[673] 9.9999959313780473e-01
x[674] 0
x[675] 1.5677817819362169e-08
x[676] 0
x[677] 0
x[678] 9.9999907667067012e-01
x[679] 0
x[680] 1
x[681] -4.82728909665409e-07
x[682] -2.9560472958323203e-08
x[683] 4.8179725268092605e-08
x[684] 0
x[685] 0
x[686] 1
x[687] 1
x[688] 9.9999991954518064e-01
x[689] 0
x[690] 0
x[691] 0
x[692] 0
x[693] 1
x[694] 1
x[695] 1
x[696] 0.999999970060134
x[697] -1.6891699144903531e-08
x[698] 1
x[699] 1
x[700] 1
x[701] 1
x[702] 1
x[703] 0
x[704] 1
x[705] 1
x[706] 0
x[707] 0
x[708] 0
x[709] 0
x[710] 1
x[711] 1
x[712] 9.9999988265110440e-01
x[713] 1
x[714] 1
x[715] 0
x[716] 0
x[717] 1
x[718] 1
x[719] 0
x[720] 0
x[721] 1.0000000160379763e+00
x[722] 0
x[723] 1
x[724] 0
x[725] 1
x[726] 4.8261176149886285e-07
x[727] 1.0000000295008562e+00
x[728] 0
x[729] 1
x[730] 0
x[731] 1
x[732] 0
x[733] 0
x[734] 0
x[735] 1
x[736] 0
x[737] 1
x[738] 0
x[739] 9.9999992287851414e-01
x[740] 0
x[741] 0
x[742] 0
x[743] 0
x[744] 1
x[745] 1.2062277857845129e-07
x[746] 0
x[747] 0
x[748] 0
x[749] 0
x[750] 1
x[751] 0
x[752] 1
x[753] 1
x[754] 0
x[755] 1
x[756] 1
x[757] 1
x[758] 0
x[759] 1
x[760] 1
x[761] 1
x[762] 0
x[763] 0
x[764] 0
x[765] 1
x[766] 1
x[767] 0
x[768] 1
x[769] 1
x[770] 0
x[771] 1
x[772] 0
x[773] 0
x[774] 1
x[775] 1
x[776] 0
x[777] 0
x[778] 1
x[779] 1
x[780] 4.8105255534513881e-07
x[781] 1
x[782] 1
x[783] 0
x[784] 1
x[785] -5.1266877387767806e-07
x[786] 0
x[787] 1
x[788] 0
x[789] 1
x[790] 1
x[791] 0
x[792] 1
x[793] 0
x[794] 1
x[795] 4.1170553561885675e-07
x[796] 1
x[797] 0
x[798] 0
x[799] 9.9999993563614475e-01
x[800] 0
x[801] 1
x[802] 1
x[803] 1
x[804] 0
x[805] 0
x[806] 1
x[807] 1
x[808] 0
x[809] 0
x[810] 0
x[811] 1
x[812] 0
x[813] 4.8184313516432686e-08
x[814] 1
x[815] 0
x[816] 1.8594065957066552e-08
x[817] 0
x[818] 0
x[819] 1
x[820] -2.9560473402412413e-08
x[821] 0
x[822] 0
x[823] 1
x[824] 0
x[825] 0
x[826] 1
x[827] 1
x[828] -5.6318373142794076e-07
x[829] 1
x[830] 1
x[831] 0
x[832] 0
x[833] 2.9871201752631315e-08
x[834] 0
x[835] 0
x[836] 0
x[837] 0
x[838] 1
x[839] 0
x[840] 0
x[841] 1
x[842] 0
x[843] 1
x[844] 9.9999988265110562e-01
x[845] 9.9999952072120157e-01
x[846] 1
x[847] 1
x[848] 0
x[849] 1
x[850] 9.9999995172711120e-01
x[851] 1.2059179606345029e-07
x[852] 1
x[853] 1
x[854] 0
x[855] 0
x[856] 0
x[857] 1
x[858] 0
x[859] 1
x[860] 1
x[861] 0
x[862] 1
x[863] 1
x[864] 1
x[865] 1
x[866] 1
x[867] 0
x[868] 1
x[869] 1
x[870] 0
x[871] 1.0000004826533451e+00
x[872] 1
x[873] 0
x[874] 1
x[875] 0
x[876] 0
x[877] 1
x[878] 0
x[879] 0
x[880] 0
x[881] 1
x[882] 0
x[883] 1
x[884] 0
x[885] 1
x[886] 0
x[887] 4.8186829519003029e-08
x[888] 0
x[889] 0
x[890] 0
x[891] 1
x[892] 1
x[893] 0
x[894] 0
x[895] 1
x[896] 9.9999993563614475e-01
x[897] 0
x[898] 1
x[899] 6.4184153694748613e-08
x[900] 0
x[901] 1
x[902] 1
x[903] 0
x[904] 0
x[905] 1
x[906] 0
x[907] 5.1246603354009837e-07
x[908] 1
x[909] 9.9999949079613570e-01
x[910] 1
x[911] 0
x[912] 0
x[913] 1
x[914] 1
x[915] 0
x[916] 0
x[917] 1
x[918] -1.6891699213729008e-08
x[919] 0
x[920] 0
x[921] 0
x[922] 9.9999988270404760e-01
x[923] 0
x[924] 1
x[925] 0
x[926] 1
x[927] 0
x[928] 1
x[929] 1
x[930] 0
x[931] 1
x[932] 0
x[933] 0
x[934] -2.9560472958323203e-08
x[935] 0
x[936] 1
x[937] 1
x[938] 0
x[939] 1
x[940] 1
x[941] 0
x[942] 0
x[943] 0
x[944] 1
x[945] 0
x[946] 0
x[947] 0
x[948] -2.9939865848909438e-08
x[949] 0
x[950] 1
x[951] 1
x[952] 4.8034688200748568e-08
x[953] 0
x[954] -2.4661493472756848e-08
x[955] 1
x[956] 0
x[957] 8.0289310828064714e-08
x[958] 1
x[959] 9.9999997888537639e-01
x[960] 0
x[961] 0
x[962] 1
x[963] 1
x[964] 1
x[965] 1.0000005125741127e+00
x[966] 9.9999994063614472e-01
x[967] 1.0000000166231113e+00
x[968] 1
x[969] 1
x[970] 0
x[971] 1
x[972] 1
x[973] 1
x[974] 0
x[975] 0
x[976] 0
x[977] 0
x[978] 6.4285215495306892e-08
x[979] 0
x[980] 1
x[981] 0
x[982] 1
x[983] 0
x[984] 9.9999951999840864e-01
x[985] 1
x[986] 1
x[987] 3.3597006405773504e-08
x[988] 0
x[989] 1
x[990] 1
x[991] 0
x[992] 1
x[993] 1
x[994] 0
x[995] 9.9999999999999989e-01
x[996] 2.4126152222096633e-07
x[997] 0
x[998] 0
x[999] 1
